PROBLEM NAME: eil51_n10
KNAPSACK DATA TYPE: uncorrelated
DIMENSION: 10
NUMBER OF ITEMS: 45
CAPACITY OF KNAPSACK: 22985
MIN SPEED: 0.1
MAX SPEED: 1
RENTING RATIO: 44.14
EDGE_WEIGHT_TYPE: CEIL_2D
NODE_COORD_SECTION	(INDEX, X, Y):
1	37	52
2	21	47
3	42	41
4	31	32
5	12	42
6	17	33
7	43	67
8	5	64
9	25	55
10	48	28
ITEMS SECTION	(INDEX, PROFIT, WEIGHT, ASSIGNED NODE NUMBER):
1	971	41	7
2	954	798	7
3	925	721	7
4	903	776	7
5	898	902	7
6	891	532	9
7	887	709	9
8	867	970	9
9	832	322	9
10	832	220	9
11	808	906	2
12	801	949	2
13	727	724	2
14	716	727	2
15	710	416	2
16	632	343	8
17	602	326	8
18	572	300	8
19	548	340	8
20	537	551	8
21	518	149	5
22	514	512	5
23	434	925	5
24	431	493	5
25	406	386	5
26	383	736	6
27	383	700	6
28	377	652	6
29	348	380	6
30	343	581	6
31	308	4	4
32	307	782	4
33	281	930	4
34	272	208	4
35	244	607	4
36	239	364	10
37	218	428	10
38	212	811	10
39	165	338	10
40	147	471	10
41	138	148	3
42	116	909	3
43	111	453	3
44	106	893	3
45	91	851	3
